sat
(
  (define-fun c8 () Bool
    (= v6 "E"))
  (define-fun c3 () Bool
    (= v3 "C"))
  (define-fun c6 () Bool
    true)
  (define-fun c4 () Bool
    (= v4 "B"))
  (define-fun c13 () Bool
    true)
  (define-fun c10 () Bool
    (= v8 "C"))
  (define-fun c1 () Bool
    (= v1 "E"))
  (define-fun Dom_U () (Array String Bool)
    ((as const (Array String Bool)) true))
  (define-fun c7 () Bool
    (select Dom_U v2))
  (define-fun c9 () Bool
    (= v7 "A"))
  (define-fun c2 () Bool
    (= v2 "A"))
  (define-fun c12 () Bool
    (= v10 "D"))
  (define-fun c14 () Bool
    (select Dom_U v7))
  (define-fun c5 () Bool
    (= v5 "D"))
  (define-fun c11 () Bool
    (= v9 "B"))
  (define-fun Dom_R () (Array String Bool)
    ((as const (Array String Bool)) false))
  (define-fun Val_U_old () (Array String String)
    ((as const (Array String String)) ""))
  (define-fun Val_M () (Array String String)
    ((as const (Array String String)) ""))
  (define-fun Val_O () (Array String String)
    ((as const (Array String String)) ""))
  (define-fun Val_M_old () (Array String String)
    ((as const (Array String String)) ""))
  (define-fun v3 () String
    "C")
  (define-fun Val_R () (Array String String)
    ((as const (Array String String)) ""))
  (define-fun Val_O_old () (Array String String)
    ((as const (Array String String)) ""))
  (define-fun v6 () String
    "E")
  (define-fun Dom_M_old () (Array String Bool)
    ((as const (Array String Bool)) false))
  (define-fun Val_Rev () (Array String String)
    ((as const (Array String String)) ""))
  (define-fun Dom_M () (Array String Bool)
    ((as const (Array String Bool)) false))
  (define-fun Val_T () (Array String String)
    ((as const (Array String String)) ""))
  (define-fun Dom_T () (Array String Bool)
    ((as const (Array String Bool)) false))
  (define-fun Val_T_old () (Array String String)
    ((as const (Array String String)) ""))
  (define-fun Dom_C () (Array String Bool)
    ((as const (Array String Bool)) false))
  (define-fun Dom_C_old () (Array String Bool)
    ((as const (Array String Bool)) false))
  (define-fun v4 () String
    "B")
  (define-fun Dom_R_old () (Array String Bool)
    ((as const (Array String Bool)) false))
  (define-fun Dom_T_old () (Array String Bool)
    ((as const (Array String Bool)) false))
  (define-fun Dom_U_old () (Array String Bool)
    ((as const (Array String Bool)) false))
  (define-fun v9 () String
    "B")
  (define-fun v7 () String
    "A")
  (define-fun Dom_O_old () (Array String Bool)
    ((as const (Array String Bool)) false))
  (define-fun Val_Rev_old () (Array String String)
    ((as const (Array String String)) ""))
  (define-fun Val_R_old () (Array String String)
    ((as const (Array String String)) ""))
  (define-fun v5 () String
    "D")
  (define-fun Val_C_old () (Array String String)
    ((as const (Array String String)) ""))
  (define-fun Val_C () (Array String String)
    ((as const (Array String String)) ""))
  (define-fun v10 () String
    "D")
  (define-fun v2 () String
    "A")
  (define-fun v1 () String
    "E")
  (define-fun Dom_Rev () (Array String Bool)
    ((as const (Array String Bool)) false))
  (define-fun Dom_Rev_old () (Array String Bool)
    ((as const (Array String Bool)) false))
  (define-fun v8 () String
    "C")
  (define-fun Dom_O () (Array String Bool)
    ((as const (Array String Bool)) false))
  (define-fun Val_U () (Array String String)
    ((as const (Array String String)) ""))
  (define-fun result_is_order_list () Bool
    false)
  (define-fun result_is_cart () Bool
    false)
  (define-fun review_added () Bool
    false)
  (define-fun result_is_menu () Bool
    false)
  (define-fun lastApiStatus () Int
    0)
  (define-fun result_is_restaurant_list () Bool
    false)
  (define-fun registered ((x!0 String)) Bool
    true)
  (define-fun not_registered ((x!0 String)) Bool
    false)
  (define-fun token_present ((x!0 String)) Bool
    false)
  (define-fun authenticated ((x!0 String)) Bool
    (token_present x!0))
  (define-fun availability_updated ((x!0 String)) Bool
    false)
  (define-fun restaurant_created ((x!0 String)) Bool
    false)
  (define-fun order_recorded ((x!0 String)) Bool
    false)
  (define-fun add_to_set ((x!0 String) (x!1 String)) Bool
    false)
  (define-fun in ((x!0 String) (x!1 (Array String Bool))) Bool
    false)
  (define-fun menu_item_deleted ((x!0 String)) Bool
    false)
  (define-fun order_assigned ((x!0 String) (x!1 String)) Bool
    false)
  (define-fun order_status_updated ((x!0 String) (x!1 String)) Bool
    false)
  (define-fun not_empty ((x!0 String)) Bool
    false)
  (define-fun cart_contains ((x!0 String) (x!1 String)) Bool
    false)
  (define-fun order_exists ((x!0 String)) Bool
    false)
  (define-fun restaurant_updated ((x!0 String)) Bool
    false)
  (define-fun menu_contains ((x!0 String)) Bool
    false)
)
